c turning on binary mode checking
c parsing input formula with 259840 variables and 1039924 clauses
c finished parsing, read 23281188 bytes from proof file
c detected empty clause; start verification via backward checking
c 7335 of 1039924 clauses in core                            
c 9610 of 606352 lemmas in core using 51908 resolution steps
c 0 RAT lemmas in core; 435 redundant literals in core lemmas
s VERIFIED
c verification time: 2.840 seconds
